c n orig vars 96
p cnf 98 225
1 2 -97 0
3 4 -97 0
5 6 -97 0
7 8 -97 0
9 10 -97 0
11 12 -97 0
13 14 -97 0
15 16 -97 0
17 18 -97 0
19 20 -97 0
21 22 -97 0
23 24 -97 0
25 26 -97 0
27 28 -97 0
29 30 -97 0
31 32 -97 0
33 34 -97 0
35 36 -97 0
37 38 -97 0
39 40 -97 0
41 49 57 65 73 81 89 -98 0
42 50 58 66 74 82 90 -98 0
43 51 59 67 75 83 91 -98 0
44 52 60 68 76 84 92 -98 0
45 53 61 69 77 85 93 -98 0
46 54 62 70 78 86 94 -98 0
47 55 63 71 79 87 95 -98 0
48 56 64 72 80 88 96 -98 0
-41 -42 -98 0
-41 -43 -98 0
-41 -44 -98 0
-41 -45 -98 0
-41 -46 -98 0
-41 -47 -98 0
-41 -48 -98 0
-42 -43 -98 0
-42 -44 -98 0
-42 -45 -98 0
-42 -46 -98 0
-42 -47 -98 0
-42 -48 -98 0
-43 -44 -98 0
-43 -45 -98 0
-43 -46 -98 0
-43 -47 -98 0
-43 -48 -98 0
-44 -45 -98 0
-44 -46 -98 0
-44 -47 -98 0
-44 -48 -98 0
-45 -46 -98 0
-45 -47 -98 0
-45 -48 -98 0
-46 -47 -98 0
-46 -48 -98 0
-47 -48 -98 0
-49 -50 -98 0
-49 -51 -98 0
-49 -52 -98 0
-49 -53 -98 0
-49 -54 -98 0
-49 -55 -98 0
-49 -56 -98 0
-50 -51 -98 0
-50 -52 -98 0
-50 -53 -98 0
-50 -54 -98 0
-50 -55 -98 0
-50 -56 -98 0
-51 -52 -98 0
-51 -53 -98 0
-51 -54 -98 0
-51 -55 -98 0
-51 -56 -98 0
-52 -53 -98 0
-52 -54 -98 0
-52 -55 -98 0
-52 -56 -98 0
-53 -54 -98 0
-53 -55 -98 0
-53 -56 -98 0
-54 -55 -98 0
-54 -56 -98 0
-55 -56 -98 0
-57 -58 -98 0
-57 -59 -98 0
-57 -60 -98 0
-57 -61 -98 0
-57 -62 -98 0
-57 -63 -98 0
-57 -64 -98 0
-58 -59 -98 0
-58 -60 -98 0
-58 -61 -98 0
-58 -62 -98 0
-58 -63 -98 0
-58 -64 -98 0
-59 -60 -98 0
-59 -61 -98 0
-59 -62 -98 0
-59 -63 -98 0
-59 -64 -98 0
-60 -61 -98 0
-60 -62 -98 0
-60 -63 -98 0
-60 -64 -98 0
-61 -62 -98 0
-61 -63 -98 0
-61 -64 -98 0
-62 -63 -98 0
-62 -64 -98 0
-63 -64 -98 0
-65 -66 -98 0
-65 -67 -98 0
-65 -68 -98 0
-65 -69 -98 0
-65 -70 -98 0
-65 -71 -98 0
-65 -72 -98 0
-66 -67 -98 0
-66 -68 -98 0
-66 -69 -98 0
-66 -70 -98 0
-66 -71 -98 0
-66 -72 -98 0
-67 -68 -98 0
-67 -69 -98 0
-67 -70 -98 0
-67 -71 -98 0
-67 -72 -98 0
-68 -69 -98 0
-68 -70 -98 0
-68 -71 -98 0
-68 -72 -98 0
-69 -70 -98 0
-69 -71 -98 0
-69 -72 -98 0
-70 -71 -98 0
-70 -72 -98 0
-71 -72 -98 0
-73 -74 -98 0
-73 -75 -98 0
-73 -76 -98 0
-73 -77 -98 0
-73 -78 -98 0
-73 -79 -98 0
-73 -80 -98 0
-74 -75 -98 0
-74 -76 -98 0
-74 -77 -98 0
-74 -78 -98 0
-74 -79 -98 0
-74 -80 -98 0
-75 -76 -98 0
-75 -77 -98 0
-75 -78 -98 0
-75 -79 -98 0
-75 -80 -98 0
-76 -77 -98 0
-76 -78 -98 0
-76 -79 -98 0
-76 -80 -98 0
-77 -78 -98 0
-77 -79 -98 0
-77 -80 -98 0
-78 -79 -98 0
-78 -80 -98 0
-79 -80 -98 0
-81 -82 -98 0
-81 -83 -98 0
-81 -84 -98 0
-81 -85 -98 0
-81 -86 -98 0
-81 -87 -98 0
-81 -88 -98 0
-82 -83 -98 0
-82 -84 -98 0
-82 -85 -98 0
-82 -86 -98 0
-82 -87 -98 0
-82 -88 -98 0
-83 -84 -98 0
-83 -85 -98 0
-83 -86 -98 0
-83 -87 -98 0
-83 -88 -98 0
-84 -85 -98 0
-84 -86 -98 0
-84 -87 -98 0
-84 -88 -98 0
-85 -86 -98 0
-85 -87 -98 0
-85 -88 -98 0
-86 -87 -98 0
-86 -88 -98 0
-87 -88 -98 0
-89 -90 -98 0
-89 -91 -98 0
-89 -92 -98 0
-89 -93 -98 0
-89 -94 -98 0
-89 -95 -98 0
-89 -96 -98 0
-90 -91 -98 0
-90 -92 -98 0
-90 -93 -98 0
-90 -94 -98 0
-90 -95 -98 0
-90 -96 -98 0
-91 -92 -98 0
-91 -93 -98 0
-91 -94 -98 0
-91 -95 -98 0
-91 -96 -98 0
-92 -93 -98 0
-92 -94 -98 0
-92 -95 -98 0
-92 -96 -98 0
-93 -94 -98 0
-93 -95 -98 0
-93 -96 -98 0
-94 -95 -98 0
-94 -96 -98 0
-95 -96 -98 0
97 98 0
